*MODEL INPUT FILE            C     1     1     1   999     0
*FILES              
MODEL          MZCER048
FILEX          fileX.MZX                                                                                    
FILEA          fileX.MZ.  A                                                                                 
FILET          fileX.MZ.  T                                                                                 
SPECIES        MZCER048.SPE ///opt/dssat_pdi/Genotype/                                                      
ECOTYPE        MZCER048.ECO ///opt/dssat_pdi/Genotype/                                                      
CULTIVAR       MZCER048.CUL                                                                                 
PESTS          MZCER048.PST ///opt/dssat_pdi/Pest/                                                          
SOILS          SOIL.SOL                                                                                     
WEATHERW       CNYC0801.WTH                                                                                 
OUTPUT         OVERVIEW
*SIMULATION CONTROL 
                   1     1     S 2008153  5787 2008                     
                   Y     Y     N     N     N     N     N     Y     M
                   M     M     E     R     S     C     R     1     G     R     2     D     0
                   R     R     R     R     M
                   N     Y     Y     1     Y     Y     Y     Y     Y     N     Y     N     Y
!AUTOMATIC MANAGEM  
                   -99     -99   40.  100.   30.   40.   10.
                 30.   50.  100. GS000 IR001  10.0 1.000
                 30.   50.   25. FE001 GS000
                100.     1   20.
                     0     -99  100.    0.
*EXP.DETAILS        
  1fileX.MZ    CNYC                                                        
*TREATMENTS         
  1 1 1 0 Sim2008                  
*CULTIVARS          
   MZ ZD0985 Yucheng  No985  
*FIELDS             
   CNYC2008 CNYC0801   0.0  -99.   -99  -99. 100.0   -99 -99    -99. YC99001200
        -999.00000       -99.00000    -99.00               1.0  100.   1.0 -99.0   -99   -99
*INITIAL CONDITIONS 
   MZ    2008153   100     0  1.00  1.00   0.0  1000  0.80  0.00  100.   15.
      5. 0.300  4.00  10.0
     15. 0.300  4.00  10.0
     30. 0.300  4.00  8.00
     45. 0.300  4.00  6.00
     60. 0.300  4.00  6.00
     90. 0.300  4.00  5.00
*PLANTING DETAILS   
   2008170 2008176   6.6   6.6     S     R   50.    0.   5.0  -99.  -99. -99.0 -99.0 -99.0
*IRRIGATION         
   1.000   30.   50.  100. GS000 IR001  10.0
   2008163 IR003 120.0
*FERTILIZERS        
   2008169 FE027 AP004    5.   96.   52.   40.  -99.  -99.   -99
   2008211 FE005 AP001    5.  207.    0.    0.  -99.  -99.   -99
*RESIDUES           
*CHEMICALS          
*TILLAGE            
*ENVIRONMENT        
*HARVEST            
*SOIL               
 YC99001200   NRCS       -99    -99. Cinnamon soil                                     
 Yucheng   C N            36.830 116.570                                                   
 G      0.13   6.0  0.05   81.  1.00  1.00 IB001 IB001 IB001 -99  
    5.       0.090 0.330 0.460 1.000  1.00  1.34 1.300  68.2   7.6 -99.0 0.080  8.30-99.00 12.40-99.00
   15.       0.090 0.330 0.460 1.000  1.00  1.34 1.300  68.2   7.6 -99.0 0.080  8.30-99.00 12.40-99.00
   30.       0.110 0.360 0.490 1.000  1.00  1.42 0.990  66.4  10.2 -99.0 0.050  8.40-99.00 12.40-99.00
   45.       0.120 0.370 0.540 1.000  1.00  1.44 0.580  69.9   9.9 -99.0 0.050  8.30-99.00 12.40-99.00
   60.       0.120 0.370 0.540 1.000  1.00  1.44 0.580  69.9   9.9 -99.0 0.050  8.30-99.00 12.40-99.00
   90.       0.070 0.400 0.550 1.000  1.00  1.51 0.430  72.3  12.9 -99.0 0.040  8.30-99.00 12.40-99.00
                    
    5.-99.00 -99.0 -99.0 -99.0 -99.0 -99.0 -99.0 -99.0 -99.0 -99.0-99.00 -99.0 -99.0 -99.0 -99.0 -99.0  -99.
   15.-99.00 -99.0 -99.0 -99.0 -99.0 -99.0 -99.0 -99.0 -99.0 -99.0-99.00 -99.0 -99.0 -99.0 -99.0 -99.0  -99.
   30.-99.00 -99.0 -99.0 -99.0 -99.0 -99.0 -99.0 -99.0 -99.0 -99.0-99.00 -99.0 -99.0 -99.0 -99.0 -99.0  -99.
   45.-99.00 -99.0 -99.0 -99.0 -99.0 -99.0 -99.0 -99.0 -99.0 -99.0-99.00 -99.0 -99.0 -99.0 -99.0 -99.0  -99.
   60.-99.00 -99.0 -99.0 -99.0 -99.0 -99.0 -99.0 -99.0 -99.0 -99.0-99.00 -99.0 -99.0 -99.0 -99.0 -99.0  -99.
   90.-99.00 -99.0 -99.0 -99.0 -99.0 -99.0 -99.0 -99.0 -99.0 -99.0-99.00 -99.0 -99.0 -99.0 -99.0 -99.0  -99.
                    
    5.-99.00-99.00-99.00-99.00
   15.-99.00-99.00-99.00-99.00
   30.-99.00-99.00-99.00-99.00
   45.-99.00-99.00-99.00-99.00
   60.-99.00-99.00-99.00-99.00
   90.-99.00-99.00-99.00-99.00
*CULTIVAR           
ZD0985 Yucheng  No985   IB0001  245.2 0.494 690.3 530.6 12.50 40.00
