*MODEL INPUT FILE            C     1     1     1   999     0
*FILES              
MODEL          MZCER048
FILEX          fileX.MZX                                                                                    
FILEA          fileX.MZ.  A                                                                                 
FILET          fileX.MZ.  T                                                                                 
SPECIES        MZCER048.SPE ///opt/dssat_pdi/Genotype/                                                      
ECOTYPE        MZCER048.ECO ///opt/dssat_pdi/Genotype/                                                      
CULTIVAR       MZCER048.CUL                                                                                 
PESTS          MZCER048.PST ///opt/dssat_pdi/Pest/                                                          
SOILS          SOIL.SOL                                                                                     
WEATHERW       CNSY1701.WTH                                                                                 
OUTPUT         OVERVIEW
*SIMULATION CONTROL 
                   1     1     S 2017107  2673 2017                     
                   Y     Y     N     N     N     N     N     Y     M
                   M     M     E     R     S     C     R     1     G     R     2     D     0
                   R     L     L     R     M
                   N     Y     Y     1     Y     Y     Y     Y     Y     N     Y     N     Y
!AUTOMATIC MANAGEM  
                   -99     -99   40.  100.   30.   40.   10.
                 30.   50.  100. GS000 IR001  10.0 1.000
                 30.   50.   25. FE001 GS000
                100.     1   20.
                     0     -99  100.    0.
*EXP.DETAILS        
  1fileX.MZ    CNSY                                                        
*TREATMENTS         
  1 1 1 0 Sim2017                  
*CULTIVARS          
   MZ FY0985 Fuyou    No009  
*FIELDS             
   CNSY1701 CNSY1701   0.0  -99.   -99  -99. 100.0   -99 -99    -99. SY99001200
        -999.00000       -99.00000    -99.00               1.0  100.   1.0 -99.0   -99   -99
*INITIAL CONDITIONS 
   MZ    2017107   100     0  1.00  1.00   0.0  1000  0.80  0.00  100.   15.
      5. 0.140  2.30  1.30
     15. 0.130  2.30  1.30
     20. 0.120  2.30  1.30
     30. 0.120  2.10  1.30
     40. 0.120  2.10  1.30
     50. 0.120  1.90  1.00
     60. 0.120  1.90  1.00
     80. 0.120  1.80 0.800
    100. 0.120  1.80 0.800
*PLANTING DETAILS   
   2017111 2017118   4.4   4.4     S     R   50.    0.   5.0  -99.  -99. -99.0 -99.0 -99.0
*IRRIGATION         
   1.000   30.   50.  100. GS000 IR001  10.0
   2017111 IR001   0.0
*FERTILIZERS        
     17111 FE005 AP002    5.    0.  -99.  -99.  -99.  -99.   -99
*RESIDUES           
*CHEMICALS          
*TILLAGE            
*ENVIRONMENT        
*HARVEST            
*SOIL               
 SY99001200   NRCS       -99    -99. Aquic Brown Soil                                  
 Shenyang  C N            38.930 111.440                                                   
 G      0.13   6.0  0.05   81.  1.00  1.00 IB001 IB001 IB001 -99  
    5.       0.140 0.370 0.430 1.000  1.00  1.22 2.250  58.7  24.4 -99.0 0.130  5.70-99.00 16.00  0.00
   15.       0.145 0.345 0.425 1.000  1.00  1.29 2.035  60.3  24.4 -99.0 0.120  5.70-99.00 16.00  0.00
   20.       0.150 0.320 0.420 1.000  1.00  1.36 1.820  62.0  24.4 -99.0 0.110  5.70-99.00 16.00  0.00
   30.       0.160 0.310 0.470 1.000  1.00  1.42 1.390  59.6  25.8 -99.0 0.080  5.70-99.00 16.00  0.00
   40.       0.140 0.320 0.430 1.000  1.00  1.46 1.190  61.2  27.6 -99.0 0.080  5.70-99.00 16.00  0.00
   50.       0.130 0.310 0.420 1.000  1.00  1.46 1.420  54.5  35.0 -99.0 0.090  5.70-99.00 16.00  0.00
   60.       0.130 0.310 0.420 1.000  1.00  1.46 1.420  54.5  35.0 -99.0 0.090  5.70-99.00 16.00  0.00
   80.       0.130 0.350 0.470 1.000  1.00  1.50 1.180  46.2  44.3 -99.0 0.080  5.70-99.00 16.00  0.00
  100.       0.130 0.350 0.470 1.000  1.00  1.50 1.180  46.2  44.3 -99.0 0.080  5.70-99.00 16.00  0.00
                    
    5.-99.00 -99.0 -99.0 -99.0 -99.0 -99.0 -99.0 -99.0 -99.0 -99.0-99.00 -99.0 -99.0 -99.0 -99.0 -99.0  -99.
   15.-99.00 -99.0 -99.0 -99.0 -99.0 -99.0 -99.0 -99.0 -99.0 -99.0-99.00 -99.0 -99.0 -99.0 -99.0 -99.0  -99.
   20.-99.00 -99.0 -99.0 -99.0 -99.0 -99.0 -99.0 -99.0 -99.0 -99.0-99.00 -99.0 -99.0 -99.0 -99.0 -99.0  -99.
   30.-99.00 -99.0 -99.0 -99.0 -99.0 -99.0 -99.0 -99.0 -99.0 -99.0-99.00 -99.0 -99.0 -99.0 -99.0 -99.0  -99.
   40.-99.00 -99.0 -99.0 -99.0 -99.0 -99.0 -99.0 -99.0 -99.0 -99.0-99.00 -99.0 -99.0 -99.0 -99.0 -99.0  -99.
   50.-99.00 -99.0 -99.0 -99.0 -99.0 -99.0 -99.0 -99.0 -99.0 -99.0-99.00 -99.0 -99.0 -99.0 -99.0 -99.0  -99.
   60.-99.00 -99.0 -99.0 -99.0 -99.0 -99.0 -99.0 -99.0 -99.0 -99.0-99.00 -99.0 -99.0 -99.0 -99.0 -99.0  -99.
   80.-99.00 -99.0 -99.0 -99.0 -99.0 -99.0 -99.0 -99.0 -99.0 -99.0-99.00 -99.0 -99.0 -99.0 -99.0 -99.0  -99.
  100.-99.00 -99.0 -99.0 -99.0 -99.0 -99.0 -99.0 -99.0 -99.0 -99.0-99.00 -99.0 -99.0 -99.0 -99.0 -99.0  -99.
                    
    5.-99.00-99.00-99.00-99.00
   15.-99.00-99.00-99.00-99.00
   20.-99.00-99.00-99.00-99.00
   30.-99.00-99.00-99.00-99.00
   40.-99.00-99.00-99.00-99.00
   50.-99.00-99.00-99.00-99.00
   60.-99.00-99.00-99.00-99.00
   80.-99.00-99.00-99.00-99.00
  100.-99.00-99.00-99.00-99.00
*CULTIVAR           
FY0985 Fuyou    No009   IB0001  245.2 1.594 790.3 530.6 16.50 50.00
